NAME : instances/clustered-mixed-tsp/instance-42.tsp
COMMENT : No Comment
TYPE : TSP
DIMENSION: 52
EDGE_WEIGHT_TYPE : EUC_2D
NODE_COORD_SECTION
1 -78 736 
2 579 750 
3 830 890 
4 -56 1154 
5 995 1110 
6 647 193 
7 577 1242 
8 295 545 
9 730 1021 
10 568 519 
11 515 523 
12 821 266 
13 506 493 
14 748 361 
15 876 398 
16 663 1258 
17 306 655 
18 869 273 
19 -231 326 
20 458 563 
21 449 116 
22 0 326 
23 599 1198 
24 196 556 
25 275 -125 
26 -217 362 
27 389 768 
28 495 240 
29 709 989 
30 814 680 
31 565 691 
32 698 978 
33 58 527 
34 252 703 
35 328 556 
36 653 878 
37 786 1242 
38 11 282 
39 506 548 
40 -41 538 
41 372 424 
42 702 292 
43 -44 -81 
44 69 769 
45 484 647 
46 -41 604 
47 154 150 
48 548 369 
49 647 127 
50 -129 725 
51 733 453 
52 174 413 
EOF
